(set-logic HORN)
(set-info :source |
    Benchmark: C_VC
    Output by Princess (http://www.philipp.ruemmer.org/princess.shtml)
|)
(set-info :status unknown)
(declare-fun inv_main16 (Int Int Int Int Int Int Int) Bool)
(declare-fun inv_main18 (Int Int Int Int Int Int Int) Bool)
(declare-fun inv_main19 (Int Int Int Int Int Int Int) Bool)
(declare-fun inv_main20 (Int Int Int Int Int Int Int) Bool)
(declare-fun inv_main21 (Int Int Int Int Int Int Int) Bool)
(declare-fun inv_main26 (Int Int Int Int Int Int Int) Bool)
(declare-fun inv_main28 (Int Int Int Int Int Int Int) Bool)
(declare-fun inv_main29 (Int Int Int Int Int Int Int) Bool)
(declare-fun inv_main3 (Int Int Int Int Int Int Int) Bool)
(declare-fun inv_main30 (Int Int Int Int Int Int Int) Bool)
(declare-fun inv_main31 (Int Int Int Int Int Int Int) Bool)
(declare-fun inv_main32 (Int Int Int Int Int Int Int) Bool)
(declare-fun inv_main34 (Int Int Int Int Int Int Int) Bool)
(declare-fun inv_main35 (Int Int Int Int Int Int Int) Bool)
(declare-fun inv_main36 (Int Int Int Int Int Int Int) Bool)
(declare-fun inv_main37 (Int Int Int Int Int Int Int) Bool)
(declare-fun inv_main38 (Int Int Int Int Int Int Int) Bool)
(declare-fun inv_main39 (Int Int Int Int Int Int Int) Bool)
(declare-fun inv_main4 (Int Int Int Int Int Int Int) Bool)
(declare-fun inv_main40 (Int Int Int Int Int Int Int) Bool)
(declare-fun inv_main42 (Int Int Int Int Int Int Int) Bool)
(declare-fun inv_main43 (Int Int Int Int Int Int Int) Bool)
(declare-fun inv_main44 (Int Int Int Int Int Int Int) Bool)
(declare-fun inv_main45 (Int Int Int Int Int Int Int) Bool)
(declare-fun inv_main46 (Int Int Int Int Int Int Int) Bool)
(declare-fun inv_main47 (Int Int Int Int Int Int Int) Bool)
(declare-fun inv_main8 (Int Int Int Int Int Int Int) Bool)
(assert (forall ((var0 Int)) (forall ((var1 Int)) (forall ((var2 Int)) (forall ((var3 Int)) (forall ((var4 Int)) (forall ((var5 Int)) (inv_main3 0 var1 var0 var4 var3 var5 var2 ) ) ) ) ) ) ) )
(assert (forall ((var0 Int)) (forall ((var1 Int)) (forall ((var2 Int)) (forall ((var3 Int)) (forall ((var4 Int)) (forall ((var5 Int)) (forall ((var6 Int)) (or (not (inv_main3 var6 var2 var4 var1 var0 var3 var5 ) ) (inv_main4 var6 var2 var4 var1 var2 var3 var5 ) ) ) ) ) ) ) ) ) )
(assert (forall ((var0 Int)) (forall ((var1 Int)) (forall ((var2 Int)) (forall ((var3 Int)) (forall ((var4 Int)) (forall ((var5 Int)) (forall ((var6 Int)) (or (not (inv_main16 var6 var2 var4 var1 var0 var3 var5 ) ) (inv_main18 var6 var2 var4 var1 var0 var3 var5 ) ) ) ) ) ) ) ) ) )
(assert (forall ((var0 Int)) (forall ((var1 Int)) (forall ((var2 Int)) (forall ((var3 Int)) (forall ((var4 Int)) (forall ((var5 Int)) (forall ((var6 Int)) (or (not (inv_main18 var6 var2 var4 var1 var0 var3 var5 ) ) (inv_main19 var6 var2 var4 var1 var0 var3 var5 ) ) ) ) ) ) ) ) ) )
(assert (forall ((var0 Int)) (forall ((var1 Int)) (forall ((var2 Int)) (forall ((var3 Int)) (forall ((var4 Int)) (forall ((var5 Int)) (forall ((var6 Int)) (or (not (inv_main19 var6 var2 var4 var1 var0 var3 var5 ) ) (inv_main20 var6 var2 var4 var1 var0 var3 var5 ) ) ) ) ) ) ) ) ) )
(assert (forall ((var0 Int)) (forall ((var1 Int)) (forall ((var2 Int)) (forall ((var3 Int)) (forall ((var4 Int)) (forall ((var5 Int)) (forall ((var6 Int)) (or (not (inv_main26 var6 var2 var4 var1 var0 var3 var5 ) ) (inv_main28 var6 var2 var4 var1 var0 var3 var5 ) ) ) ) ) ) ) ) ) )
(assert (forall ((var0 Int)) (forall ((var1 Int)) (forall ((var2 Int)) (forall ((var3 Int)) (forall ((var4 Int)) (forall ((var5 Int)) (forall ((var6 Int)) (or (not (inv_main28 var6 var2 var4 var1 var0 var3 var5 ) ) (inv_main29 var6 var2 var4 var1 var0 var3 var5 ) ) ) ) ) ) ) ) ) )
(assert (forall ((var0 Int)) (forall ((var1 Int)) (forall ((var2 Int)) (forall ((var3 Int)) (forall ((var4 Int)) (forall ((var5 Int)) (forall ((var6 Int)) (or (not (inv_main29 var6 var2 var4 var1 var0 var3 var5 ) ) (inv_main30 var6 var2 var4 var1 var0 var3 var5 ) ) ) ) ) ) ) ) ) )
(assert (forall ((var0 Int)) (forall ((var1 Int)) (forall ((var2 Int)) (forall ((var3 Int)) (forall ((var4 Int)) (forall ((var5 Int)) (forall ((var6 Int)) (or (not (and (inv_main31 var6 var2 var4 var1 var0 var3 var5 ) (<= 0 (+ var2 (* (- 1) var5 ) ) ) ) ) (inv_main32 var6 var2 var4 var1 var0 var3 var5 ) ) ) ) ) ) ) ) ) )
(assert (forall ((var0 Int)) (forall ((var1 Int)) (forall ((var2 Int)) (forall ((var3 Int)) (forall ((var4 Int)) (forall ((var5 Int)) (forall ((var6 Int)) (or (not (inv_main32 var6 var2 var4 var1 var0 var3 var5 ) ) (inv_main34 var6 var2 var4 var1 var0 var3 var5 ) ) ) ) ) ) ) ) ) )
(assert (forall ((var0 Int)) (forall ((var1 Int)) (forall ((var2 Int)) (forall ((var3 Int)) (forall ((var4 Int)) (forall ((var5 Int)) (forall ((var6 Int)) (or (not (inv_main34 var6 var2 var4 var1 var0 var3 var5 ) ) (inv_main35 var6 var2 var4 var1 var0 var3 var5 ) ) ) ) ) ) ) ) ) )
(assert (forall ((var0 Int)) (forall ((var1 Int)) (forall ((var2 Int)) (forall ((var3 Int)) (forall ((var4 Int)) (forall ((var5 Int)) (forall ((var6 Int)) (or (not (inv_main35 var6 var2 var4 var1 var0 var3 var5 ) ) (inv_main36 var6 var2 var4 var1 var0 var3 var5 ) ) ) ) ) ) ) ) ) )
(assert (forall ((var0 Int)) (forall ((var1 Int)) (forall ((var2 Int)) (forall ((var3 Int)) (forall ((var4 Int)) (forall ((var5 Int)) (forall ((var6 Int)) (or (not (inv_main36 var6 var2 var4 var1 var0 var3 var5 ) ) (inv_main37 var6 var2 var4 var1 var0 var3 var5 ) ) ) ) ) ) ) ) ) )
(assert (forall ((var0 Int)) (forall ((var1 Int)) (forall ((var2 Int)) (forall ((var3 Int)) (forall ((var4 Int)) (forall ((var5 Int)) (forall ((var6 Int)) (or (not (inv_main37 var6 var2 var4 var1 var0 var3 var5 ) ) (inv_main38 var6 var2 var4 var1 var0 var3 var5 ) ) ) ) ) ) ) ) ) )
(assert (forall ((var0 Int)) (forall ((var1 Int)) (forall ((var2 Int)) (forall ((var3 Int)) (forall ((var4 Int)) (forall ((var5 Int)) (forall ((var6 Int)) (or (not (and (inv_main39 var6 var2 var4 var1 var0 var3 var5 ) (<= 0 (+ var2 (* (- 1) var3 ) ) ) ) ) (inv_main40 var6 var2 var4 var1 var0 var3 var5 ) ) ) ) ) ) ) ) ) )
(assert (forall ((var0 Int)) (forall ((var1 Int)) (forall ((var2 Int)) (forall ((var3 Int)) (forall ((var4 Int)) (forall ((var5 Int)) (forall ((var6 Int)) (or (not (and (inv_main39 var6 var2 var4 var1 var0 var3 var5 ) (not (<= 0 (+ var2 (* (- 1) var3 ) ) ) ) ) ) (inv_main8 var6 var2 var4 var1 var0 var3 var5 ) ) ) ) ) ) ) ) ) )
(assert (forall ((var0 Int)) (forall ((var1 Int)) (forall ((var2 Int)) (forall ((var3 Int)) (forall ((var4 Int)) (forall ((var5 Int)) (forall ((var6 Int)) (or (not (inv_main40 var6 var2 var4 var1 var0 var3 var5 ) ) (inv_main42 var6 var2 var4 var1 var0 var3 var5 ) ) ) ) ) ) ) ) ) )
(assert (forall ((var0 Int)) (forall ((var1 Int)) (forall ((var2 Int)) (forall ((var3 Int)) (forall ((var4 Int)) (forall ((var5 Int)) (forall ((var6 Int)) (or (not (inv_main42 var6 var2 var4 var1 var0 var3 var5 ) ) (inv_main43 var6 var2 var4 var1 var0 var3 var5 ) ) ) ) ) ) ) ) ) )
(assert (forall ((var0 Int)) (forall ((var1 Int)) (forall ((var2 Int)) (forall ((var3 Int)) (forall ((var4 Int)) (forall ((var5 Int)) (forall ((var6 Int)) (or (not (inv_main43 var6 var2 var4 var1 var0 var3 var5 ) ) (inv_main44 var6 var2 var4 var1 var0 var3 var5 ) ) ) ) ) ) ) ) ) )
(assert (forall ((var0 Int)) (forall ((var1 Int)) (forall ((var2 Int)) (forall ((var3 Int)) (forall ((var4 Int)) (forall ((var5 Int)) (forall ((var6 Int)) (or (not (inv_main8 var6 var2 var4 var1 var0 var3 var5 ) ) (inv_main45 var6 var2 var4 var1 var0 var3 var5 ) ) ) ) ) ) ) ) ) )
(assert (forall ((var0 Int)) (forall ((var1 Int)) (forall ((var2 Int)) (forall ((var3 Int)) (forall ((var4 Int)) (forall ((var5 Int)) (forall ((var6 Int)) (or (not (inv_main45 var6 var2 var4 var1 var0 var3 var5 ) ) (inv_main46 var6 var2 var4 var1 var0 var3 var5 ) ) ) ) ) ) ) ) ) )
(assert (forall ((var0 Int)) (forall ((var1 Int)) (forall ((var2 Int)) (forall ((var3 Int)) (forall ((var4 Int)) (forall ((var5 Int)) (forall ((var6 Int)) (or (not (inv_main46 var6 var2 var4 var1 var0 var3 var5 ) ) (inv_main47 var6 var2 var4 var1 var0 var3 var5 ) ) ) ) ) ) ) ) ) )
(assert (forall ((var0 Int)) (forall ((var1 Int)) (forall ((var2 Int)) (forall ((var3 Int)) (forall ((var4 Int)) (forall ((var5 Int)) (forall ((var6 Int)) (or (not (and (inv_main4 var6 var2 var4 var1 var0 var3 var5 ) (and (not (<= 0 (+ (+ var2 (* (- 1) var0 ) ) (- 1) ) ) ) (<= 0 (+ var0 (- 1) ) ) ) ) ) (inv_main8 var6 var2 var4 (+ var0 1 ) var0 var3 var5 ) ) ) ) ) ) ) ) ) )
(assert (forall ((var0 Int)) (forall ((var1 Int)) (forall ((var2 Int)) (forall ((var3 Int)) (forall ((var4 Int)) (forall ((var5 Int)) (forall ((var6 Int)) (or (not (and (inv_main31 var6 var2 var4 var1 var0 var3 var5 ) (not (<= 0 (+ var2 (* (- 1) var5 ) ) ) ) ) ) (inv_main21 var6 var2 var4 var1 var0 (+ var3 1 ) var5 ) ) ) ) ) ) ) ) ) )
(assert (forall ((var0 Int)) (forall ((var1 Int)) (forall ((var2 Int)) (forall ((var3 Int)) (forall ((var4 Int)) (forall ((var5 Int)) (forall ((var6 Int)) (or (not (inv_main38 var6 var2 var4 var1 var0 var3 var5 ) ) (inv_main31 var6 var2 var4 var1 var0 var3 (+ var5 1 ) ) ) ) ) ) ) ) ) ) )
(assert (forall ((var0 Int)) (forall ((var1 Int)) (forall ((var2 Int)) (forall ((var3 Int)) (forall ((var4 Int)) (forall ((var5 Int)) (forall ((var6 Int)) (or (not (inv_main44 var6 var2 var4 var1 var0 var3 var5 ) ) (inv_main39 var6 var2 var4 var1 var0 (+ var3 1 ) var5 ) ) ) ) ) ) ) ) ) )
(assert (forall ((var0 Int)) (forall ((var1 Int)) (forall ((var2 Int)) (forall ((var3 Int)) (forall ((var4 Int)) (forall ((var5 Int)) (forall ((var6 Int)) (or (not (inv_main47 var6 var2 var4 var1 var0 var3 var5 ) ) (inv_main4 var6 var2 var4 var0 (+ var0 (- 1) ) var3 var5 ) ) ) ) ) ) ) ) ) )
(assert (forall ((var0 Int)) (forall ((var1 Int)) (forall ((var2 Int)) (forall ((var3 Int)) (forall ((var4 Int)) (forall ((var5 Int)) (forall ((var6 Int)) (or (not (and (inv_main4 var6 var2 var4 var1 var0 var3 var5 ) (and (<= 0 (+ var2 (* (- 1) (+ var0 1 ) ) ) ) (and (not (= var6 0 ) ) (and (<= 0 (+ (+ var2 (* (- 1) var0 ) ) (- 1) ) ) (<= 0 (+ var0 (- 1) ) ) ) ) ) ) ) (inv_main16 var6 var2 var4 (+ var0 1 ) var0 (+ var0 1 ) var5 ) ) ) ) ) ) ) ) ) )
(assert (forall ((var0 Int)) (forall ((var1 Int)) (forall ((var2 Int)) (forall ((var3 Int)) (forall ((var4 Int)) (forall ((var5 Int)) (forall ((var6 Int)) (or (not (and (inv_main4 var6 var2 var4 var1 var0 var3 var5 ) (and (not (<= 0 (+ var2 (* (- 1) (+ var0 1 ) ) ) ) ) (and (not (= var6 0 ) ) (and (<= 0 (+ (+ var2 (* (- 1) var0 ) ) (- 1) ) ) (<= 0 (+ var0 (- 1) ) ) ) ) ) ) ) (inv_main21 var6 var2 var4 (+ var0 1 ) var0 (+ var0 1 ) var5 ) ) ) ) ) ) ) ) ) )
(assert (forall ((var0 Int)) (forall ((var1 Int)) (forall ((var2 Int)) (forall ((var3 Int)) (forall ((var4 Int)) (forall ((var5 Int)) (forall ((var6 Int)) (or (not (and (inv_main20 var6 var2 var4 var1 var0 var3 var5 ) (<= 0 (+ var2 (* (- 1) (+ var3 1 ) ) ) ) ) ) (inv_main16 var6 var2 var4 var1 var0 (+ var3 1 ) var5 ) ) ) ) ) ) ) ) ) )
(assert (forall ((var0 Int)) (forall ((var1 Int)) (forall ((var2 Int)) (forall ((var3 Int)) (forall ((var4 Int)) (forall ((var5 Int)) (forall ((var6 Int)) (or (not (and (inv_main20 var6 var2 var4 var1 var0 var3 var5 ) (not (<= 0 (+ var2 (* (- 1) (+ var3 1 ) ) ) ) ) ) ) (inv_main21 var6 var2 var4 var1 var0 var1 var5 ) ) ) ) ) ) ) ) ) )
(assert (forall ((var0 Int)) (forall ((var1 Int)) (forall ((var2 Int)) (forall ((var3 Int)) (forall ((var4 Int)) (forall ((var5 Int)) (forall ((var6 Int)) (or (not (and (inv_main21 var6 var2 var4 var1 var0 var3 var5 ) (not (<= 0 (+ var2 (* (- 1) var3 ) ) ) ) ) ) (inv_main39 var6 var2 var4 var1 var0 var1 var5 ) ) ) ) ) ) ) ) ) )
(assert (forall ((var0 Int)) (forall ((var1 Int)) (forall ((var2 Int)) (forall ((var3 Int)) (forall ((var4 Int)) (forall ((var5 Int)) (forall ((var6 Int)) (or (not (and (inv_main4 var6 var2 var4 var1 var0 var3 var5 ) (and (= var6 0 ) (and (<= 0 (+ (+ var2 (* (- 1) var0 ) ) (- 1) ) ) (<= 0 (+ var0 (- 1) ) ) ) ) ) ) (inv_main39 var6 var2 var4 (+ var0 1 ) var0 (+ var0 1 ) var5 ) ) ) ) ) ) ) ) ) )
(assert (forall ((var0 Int)) (forall ((var1 Int)) (forall ((var2 Int)) (forall ((var3 Int)) (forall ((var4 Int)) (forall ((var5 Int)) (forall ((var6 Int)) (or (not (and (inv_main21 var6 var2 var4 var1 var0 var3 var5 ) (and (<= 0 (+ var2 (* (- 1) var1 ) ) ) (<= 0 (+ var2 (* (- 1) var3 ) ) ) ) ) ) (inv_main26 var6 var2 var4 var1 var0 var3 var1 ) ) ) ) ) ) ) ) ) )
(assert (forall ((var0 Int)) (forall ((var1 Int)) (forall ((var2 Int)) (forall ((var3 Int)) (forall ((var4 Int)) (forall ((var5 Int)) (forall ((var6 Int)) (or (not (and (inv_main21 var6 var2 var4 var1 var0 var3 var5 ) (and (not (<= 0 (+ var2 (* (- 1) var1 ) ) ) ) (<= 0 (+ var2 (* (- 1) var3 ) ) ) ) ) ) (inv_main31 var6 var2 var4 var1 var0 var3 var1 ) ) ) ) ) ) ) ) ) )
(assert (forall ((var0 Int)) (forall ((var1 Int)) (forall ((var2 Int)) (forall ((var3 Int)) (forall ((var4 Int)) (forall ((var5 Int)) (forall ((var6 Int)) (or (not (and (inv_main30 var6 var2 var4 var1 var0 var3 var5 ) (<= 0 (+ var2 (* (- 1) (+ var5 1 ) ) ) ) ) ) (inv_main26 var6 var2 var4 var1 var0 var3 (+ var5 1 ) ) ) ) ) ) ) ) ) ) )
(assert (forall ((var0 Int)) (forall ((var1 Int)) (forall ((var2 Int)) (forall ((var3 Int)) (forall ((var4 Int)) (forall ((var5 Int)) (forall ((var6 Int)) (or (not (and (inv_main30 var6 var2 var4 var1 var0 var3 var5 ) (not (<= 0 (+ var2 (* (- 1) (+ var5 1 ) ) ) ) ) ) ) (inv_main31 var6 var2 var4 var1 var0 var3 var1 ) ) ) ) ) ) ) ) ) )
(assert (forall ((var0 Int)) (forall ((var1 Int)) (forall ((var2 Int)) (forall ((var3 Int)) (forall ((var4 Int)) (forall ((var5 Int)) (forall ((var6 Int)) (not (and (inv_main16 var6 var2 var4 var1 var0 var3 var5 ) (not (<= 0 (+ var3 (- 1) ) ) ) ) ) ) ) ) ) ) ) ) )
(assert (forall ((var0 Int)) (forall ((var1 Int)) (forall ((var2 Int)) (forall ((var3 Int)) (forall ((var4 Int)) (forall ((var5 Int)) (forall ((var6 Int)) (not (and (inv_main18 var6 var2 var4 var1 var0 var3 var5 ) (not (<= 0 (+ var2 (* (- 1) var3 ) ) ) ) ) ) ) ) ) ) ) ) ) )
(assert (forall ((var0 Int)) (forall ((var1 Int)) (forall ((var2 Int)) (forall ((var3 Int)) (forall ((var4 Int)) (forall ((var5 Int)) (forall ((var6 Int)) (not (and (inv_main19 var6 var2 var4 var1 var0 var3 var5 ) (not (<= 0 (+ var0 (- 1) ) ) ) ) ) ) ) ) ) ) ) ) )
(assert (forall ((var0 Int)) (forall ((var1 Int)) (forall ((var2 Int)) (forall ((var3 Int)) (forall ((var4 Int)) (forall ((var5 Int)) (forall ((var6 Int)) (not (and (inv_main20 var6 var2 var4 var1 var0 var3 var5 ) (not (<= 0 (+ var2 (* (- 1) var0 ) ) ) ) ) ) ) ) ) ) ) ) ) )
(assert (forall ((var0 Int)) (forall ((var1 Int)) (forall ((var2 Int)) (forall ((var3 Int)) (forall ((var4 Int)) (forall ((var5 Int)) (forall ((var6 Int)) (not (and (inv_main26 var6 var2 var4 var1 var0 var3 var5 ) (not (<= 0 (+ var5 (- 1) ) ) ) ) ) ) ) ) ) ) ) ) )
(assert (forall ((var0 Int)) (forall ((var1 Int)) (forall ((var2 Int)) (forall ((var3 Int)) (forall ((var4 Int)) (forall ((var5 Int)) (forall ((var6 Int)) (not (and (inv_main28 var6 var2 var4 var1 var0 var3 var5 ) (not (<= 0 (+ var2 (* (- 1) var5 ) ) ) ) ) ) ) ) ) ) ) ) ) )
(assert (forall ((var0 Int)) (forall ((var1 Int)) (forall ((var2 Int)) (forall ((var3 Int)) (forall ((var4 Int)) (forall ((var5 Int)) (forall ((var6 Int)) (not (and (inv_main29 var6 var2 var4 var1 var0 var3 var5 ) (not (<= 0 (+ var3 (- 1) ) ) ) ) ) ) ) ) ) ) ) ) )
(assert (forall ((var0 Int)) (forall ((var1 Int)) (forall ((var2 Int)) (forall ((var3 Int)) (forall ((var4 Int)) (forall ((var5 Int)) (forall ((var6 Int)) (not (and (inv_main30 var6 var2 var4 var1 var0 var3 var5 ) (not (<= 0 (+ var2 (* (- 1) var3 ) ) ) ) ) ) ) ) ) ) ) ) ) )
(assert (forall ((var0 Int)) (forall ((var1 Int)) (forall ((var2 Int)) (forall ((var3 Int)) (forall ((var4 Int)) (forall ((var5 Int)) (forall ((var6 Int)) (not (and (inv_main32 var6 var2 var4 var1 var0 var3 var5 ) (not (<= 0 (+ var5 (- 1) ) ) ) ) ) ) ) ) ) ) ) ) )
(assert (forall ((var0 Int)) (forall ((var1 Int)) (forall ((var2 Int)) (forall ((var3 Int)) (forall ((var4 Int)) (forall ((var5 Int)) (forall ((var6 Int)) (not (and (inv_main34 var6 var2 var4 var1 var0 var3 var5 ) (not (<= 0 (+ var2 (* (- 1) var5 ) ) ) ) ) ) ) ) ) ) ) ) ) )
(assert (forall ((var0 Int)) (forall ((var1 Int)) (forall ((var2 Int)) (forall ((var3 Int)) (forall ((var4 Int)) (forall ((var5 Int)) (forall ((var6 Int)) (not (and (inv_main35 var6 var2 var4 var1 var0 var3 var5 ) (not (<= 0 (+ var3 (- 1) ) ) ) ) ) ) ) ) ) ) ) ) )
(assert (forall ((var0 Int)) (forall ((var1 Int)) (forall ((var2 Int)) (forall ((var3 Int)) (forall ((var4 Int)) (forall ((var5 Int)) (forall ((var6 Int)) (not (and (inv_main36 var6 var2 var4 var1 var0 var3 var5 ) (not (<= 0 (+ var2 (* (- 1) var3 ) ) ) ) ) ) ) ) ) ) ) ) ) )
(assert (forall ((var0 Int)) (forall ((var1 Int)) (forall ((var2 Int)) (forall ((var3 Int)) (forall ((var4 Int)) (forall ((var5 Int)) (forall ((var6 Int)) (not (and (inv_main37 var6 var2 var4 var1 var0 var3 var5 ) (not (<= 0 (+ var0 (- 1) ) ) ) ) ) ) ) ) ) ) ) ) )
(assert (forall ((var0 Int)) (forall ((var1 Int)) (forall ((var2 Int)) (forall ((var3 Int)) (forall ((var4 Int)) (forall ((var5 Int)) (forall ((var6 Int)) (not (and (inv_main38 var6 var2 var4 var1 var0 var3 var5 ) (not (<= 0 (+ var2 (* (- 1) var0 ) ) ) ) ) ) ) ) ) ) ) ) ) )
(assert (forall ((var0 Int)) (forall ((var1 Int)) (forall ((var2 Int)) (forall ((var3 Int)) (forall ((var4 Int)) (forall ((var5 Int)) (forall ((var6 Int)) (not (and (inv_main40 var6 var2 var4 var1 var0 var3 var5 ) (not (<= 0 (+ var3 (- 1) ) ) ) ) ) ) ) ) ) ) ) ) )
(assert (forall ((var0 Int)) (forall ((var1 Int)) (forall ((var2 Int)) (forall ((var3 Int)) (forall ((var4 Int)) (forall ((var5 Int)) (forall ((var6 Int)) (not (and (inv_main42 var6 var2 var4 var1 var0 var3 var5 ) (not (<= 0 (+ var2 (* (- 1) var3 ) ) ) ) ) ) ) ) ) ) ) ) ) )
(assert (forall ((var0 Int)) (forall ((var1 Int)) (forall ((var2 Int)) (forall ((var3 Int)) (forall ((var4 Int)) (forall ((var5 Int)) (forall ((var6 Int)) (not (and (inv_main43 var6 var2 var4 var1 var0 var3 var5 ) (not (<= 0 (+ var0 (- 1) ) ) ) ) ) ) ) ) ) ) ) ) )
(assert (forall ((var0 Int)) (forall ((var1 Int)) (forall ((var2 Int)) (forall ((var3 Int)) (forall ((var4 Int)) (forall ((var5 Int)) (forall ((var6 Int)) (not (and (inv_main44 var6 var2 var4 var1 var0 var3 var5 ) (not (<= 0 (+ var2 (* (- 1) var0 ) ) ) ) ) ) ) ) ) ) ) ) ) )
(assert (forall ((var0 Int)) (forall ((var1 Int)) (forall ((var2 Int)) (forall ((var3 Int)) (forall ((var4 Int)) (forall ((var5 Int)) (forall ((var6 Int)) (not (and (inv_main8 var6 var2 var4 var1 var0 var3 var5 ) (not (<= 0 (+ var0 (- 1) ) ) ) ) ) ) ) ) ) ) ) ) )
(assert (forall ((var0 Int)) (forall ((var1 Int)) (forall ((var2 Int)) (forall ((var3 Int)) (forall ((var4 Int)) (forall ((var5 Int)) (forall ((var6 Int)) (not (and (inv_main45 var6 var2 var4 var1 var0 var3 var5 ) (not (<= 0 (+ var2 (* (- 1) var0 ) ) ) ) ) ) ) ) ) ) ) ) ) )
(assert (forall ((var0 Int)) (forall ((var1 Int)) (forall ((var2 Int)) (forall ((var3 Int)) (forall ((var4 Int)) (forall ((var5 Int)) (forall ((var6 Int)) (not (and (inv_main46 var6 var2 var4 var1 var0 var3 var5 ) (not (<= 0 (+ var0 (- 1) ) ) ) ) ) ) ) ) ) ) ) ) )
(assert (forall ((var0 Int)) (forall ((var1 Int)) (forall ((var2 Int)) (forall ((var3 Int)) (forall ((var4 Int)) (forall ((var5 Int)) (forall ((var6 Int)) (not (and (inv_main47 var6 var2 var4 var1 var0 var3 var5 ) (not (<= 0 (+ var2 (* (- 1) var0 ) ) ) ) ) ) ) ) ) ) ) ) ) )
(check-sat)
